4857 1907
3287 2146
685 6384
5066 2691
1801 1740
6085 1858
7932 5744
6834 6616
1184 1259
5362 8315
2910 3330
6779 6402
3452 830
478 767
4167 547
3162 5082
631 5674
9781 6994
4422 2521
5107 2447
1881 3221
5442 8521
4134 2499
1937 4071
3683 595
1559 8713
2643 7319
4491 6525
7886 5568
6563 2826
5597 8198
3618 3259
5296 381
118 4883
6956 9469
8172 3631
1159 1884
5528 7421
4587 5872
7858 8691
9950 8073
7557 5804
6207 6888
5689 4857
8747 6418
5044 5239
9728 1409
7028 5768
9441 9309
4212 4198
